#N RHF/6-31G**, 6D

WATER MOLECULE: RHF/6-31G**  EXPERIMENTAL GEOMETRY

0 1
O
H 1 0.957
H 1 0.957 2 104.5

