# HF/STO-3G OPT

WATER STO-3G STRUCTUE

0 1
O
H 1 R
H 1 R 2 A

R=1.0

A=105.0


