#N HF/3-21G OPT

NCOH 3-21G OPTIMIZATION

0 1
N
C 1 CN
- 2 1.0 1 HALF
O 2 CO  3 HALF 1 180.0
H 4 OH  2 COH  3 0.0

CN=1.2
CO=1.3
OH=1.0
HALF=80.0
COH=105.0


