#N HF/3-21G OPT

AMMONIA C3V OPTIMISATION

0 1
N
- 1 1.0
H 1 NH 2 HNX
H 1 NH 2 HNX 3 120.0
H 1 NH 2 HNX 3 -120.0

NH=1.0
HNX=70.0


