# HF/STO-3G,DIRECT

Water at Experimental Geometry

0 1
O
H 1 0.956
H 1 0.956 2 104.5


