# HF/6-31G* OPT

HYDROGEN CYANIDE LIAEAR 6-31G* OPTIMISATION

0 1
N
C 1 CN
- 2 1.0 1 90.0
H 2 CH 3 90.0 1 180.0

CN=1.20
CH=1.06

