#N CID/6-31G** NOPOP

WATER CIC/6-31G** AT HF/6-31G* GEOMETRY

0 1
O
H 1 R
H 1 R 2 A

R=0.947
A=105.5


