# HF/STO-3G ALTER OPT

Amino Radical STO-3G STRUCTURE of Doublet A1 state

0 2
N
H 1 NH
H 1 NH 2 HNH

NH=1.03
HNH=120.0


4 5


