# MP2/STO-3G

Water at Experimental Geometry

0 1
O
H 1 0.956
H 1 0.956 2 104.5


