#N HF/3-21G OPT

OXIRANE C2V 3-21G OPTIMISATION

0 1
X
C1 X HALFCC
O  X     OX C1 90.0
C2 X HALFCC  O 90.0 C1 180.0
H1 C1    CH  X HCC  O  HCCO
H2 C1    CH  X HCC  O -HCCO
H3 C2    CH  X HCC  O  HCCO
H4 C2    CH  X HCC  O -HCCO

HALFCC=0.75
OX=1.0
CH=1.08
HCC=130.0
HCCO=130.0


