#N HF/3-21G OPT

AMMONIA C3V OPTIMISATION

0 1
N
H 1 NH
H 1 NH 2 HNH 
H 1 NH 2 HNH 3 HNH 1

NH=1.0
HNH=106.0


