#N HF/3-21G OPT

FLUOROMETHANE C3V 3-21G OPTIMISATION

0 1
C 
F 1 CF
H 1 CH 2 HCF
H 1 CH 2 HCF 3 120.0
H 1 CH 2 HCF 3 -120.0

CF=1.38
CH=1.09
HCF=110.6


