# HF/STO-3G OPT

WATER STO-3G STRUCTURE UNCONSTRAINED

0 1
O
H 1 R1
H 1 R2 2 A

R1=0.9
R2=1.1
A=105.0


