# HF/6-31G

Methylamine NBO manual test

 0 1
C
N 1 CN
H 1 CH 2 tet
H 1 CH 2 tet 3 120.0 0
H 1 CH 2 tet 3 240.0 0
H 2 NH 1 tet 3 60.0 0
H 2 NH 1 tet 3 300.0 0

CN 1.47
CH 1.09
NH 1.01
tet 109.4712

$NBO NLMO DIPOLE $END
$DEL NOSTAR
     ZERO 2 ATOM BLOCKS 4  BY  3
                        1  3  4  5
                        2  6  7
                        3  BY 4
                        2  6  7
                        1  3  4  5
$END


